<number of tasks>
28

<cycle time>
342

<task times>
1 70
2 59
3 33
4 6
5 1
6 27
7 17
8 62
9 31
10 53
11 21
12 19
13 108
14 52
15 5
16 8
17 97
18 8
19 47
20 67
21 17
22 8
23 3
24 21
25 107
26 3
27 2
28 72

<precedence relations>
1,2
1,3
1,4
1,5
1,8
1,19
1,21
1,22
1,23
1,24
1,26
2,6
2,17
3,28
4,28
5,28
6,7
7,18
8,9
9,10
10,11
10,12
11,15
12,13
13,14
13,16
14,28
15,28
16,28
17,28
18,28
19,20
20,28
21,28
22,28
23,28
24,25
25,28
26,27
27,28

<setup times forward>
1,5:6
1,21:14
2,5:6
2,9:14
2,10:14
2,11:14
2,12:14
2,13:14
2,14:6
2,15:6
2,16:6
2,17:6
2,20:14
2,21:14
2,25:6
3,5:6
3,7:14
3,9:14
3,10:14
3,11:14
3,12:14
3,13:14
3,14:6
3,15:6
3,16:6
3,17:6
3,18:14
3,20:14
3,21:14
3,25:6
3,28:6
4,5:6
4,7:14
4,9:14
4,10:14
4,11:14
4,12:14
4,13:14
4,14:6
4,15:6
4,16:6
4,17:6
4,18:14
4,20:14
4,21:14
4,25:6
4,28:6
5,2:6
5,3:6
5,4:6
5,6:6
5,7:20
5,8:6
5,9:20
5,10:20
5,11:20
5,12:20
5,13:20
5,18:20
5,19:6
5,20:20
5,21:20
5,22:6
5,23:6
5,24:6
5,26:6
5,27:6
6,5:6
6,7:14
6,9:14
6,10:14
6,11:14
6,12:14
6,13:14
6,14:6
6,15:6
6,16:6
6,17:6
6,20:14
6,21:14
6,25:6
7,3:14
7,4:14
7,5:20
7,8:14
7,14:20
7,15:20
7,16:20
7,17:20
7,19:14
7,22:14
7,23:14
7,24:14
7,25:20
7,26:14
7,27:14
8,5:6
8,7:14
8,9:14
8,17:6
8,18:14
8,20:14
8,21:14
8,25:6
9,2:14
9,3:14
9,4:14
9,5:20
9,6:14
9,17:20
9,19:14
9,22:14
9,23:14
9,24:14
9,25:20
9,26:14
9,27:14
10,2:14
10,3:14
10,4:14
10,5:20
10,6:14
10,17:20
10,19:14
10,22:14
10,23:14
10,24:14
10,25:20
10,26:14
10,27:14
11,2:14
11,3:14
11,4:14
11,5:20
11,6:14
11,14:20
11,15:20
11,16:20
11,17:20
11,19:14
11,22:14
11,23:14
11,24:14
11,25:20
11,26:14
11,27:14
12,2:14
12,3:14
12,4:14
12,5:20
12,6:14
12,15:20
12,17:20
12,19:14
12,22:14
12,23:14
12,24:14
12,25:20
12,26:14
12,27:14
13,2:14
13,3:14
13,4:14
13,5:20
13,6:14
13,14:20
13,15:20
13,16:20
13,17:20
13,19:14
13,22:14
13,23:14
13,24:14
13,25:20
13,26:14
13,27:14
14,2:6
14,3:6
14,4:6
14,6:6
14,7:20
14,11:20
14,18:20
14,19:6
14,20:20
14,21:20
14,22:6
14,23:6
14,24:6
14,26:6
14,27:6
15,2:6
15,3:6
15,4:6
15,6:6
15,7:20
15,12:20
15,13:20
15,18:20
15,19:6
15,20:20
15,21:20
15,22:6
15,23:6
15,24:6
15,26:6
15,27:6
16,2:6
16,3:6
16,4:6
16,6:6
16,7:20
16,11:20
16,18:20
16,19:6
16,20:20
16,21:20
16,22:6
16,23:6
16,24:6
16,26:6
16,27:6
17,3:6
17,4:6
17,6:6
17,7:20
17,8:6
17,9:20
17,10:20
17,11:20
17,12:20
17,13:20
17,18:20
17,19:6
17,20:20
17,21:20
17,22:6
17,23:6
17,24:6
17,26:6
17,27:6
18,3:14
18,4:14
18,5:20
18,8:14
18,14:20
18,15:20
18,16:20
18,17:20
18,19:14
18,22:14
18,23:14
18,24:14
18,25:20
18,26:14
18,27:14
18,28:20
19,5:6
19,7:14
19,9:14
19,10:14
19,11:14
19,12:14
19,13:14
19,14:6
19,15:6
19,16:6
19,17:6
19,18:14
19,20:14
19,21:14
19,25:6
20,2:14
20,3:14
20,4:14
20,5:20
20,6:14
20,8:14
20,14:20
20,15:20
20,16:20
20,17:20
20,22:14
20,23:14
20,24:14
20,25:20
20,26:14
20,27:14
20,28:20
21,2:14
21,3:14
21,4:14
21,5:20
21,6:14
21,8:14
21,14:20
21,15:20
21,16:20
21,17:20
21,19:14
21,22:14
21,23:14
21,24:14
21,25:20
21,26:14
21,27:14
21,28:20
22,5:6
22,7:14
22,9:14
22,10:14
22,11:14
22,12:14
22,13:14
22,14:6
22,15:6
22,16:6
22,17:6
22,18:14
22,20:14
22,21:14
22,25:6
22,28:6
23,5:6
23,7:14
23,9:14
23,10:14
23,11:14
23,12:14
23,13:14
23,14:6
23,15:6
23,16:6
23,17:6
23,18:14
23,20:14
23,21:14
23,25:6
23,28:6
24,5:6
24,7:14
24,9:14
24,10:14
24,11:14
24,12:14
24,13:14
24,14:6
24,15:6
24,16:6
24,17:6
24,18:14
24,20:14
24,21:14
24,25:6
25,2:6
25,3:6
25,4:6
25,6:6
25,7:20
25,8:6
25,9:20
25,10:20
25,11:20
25,12:20
25,13:20
25,18:20
25,19:6
25,20:20
25,21:20
25,22:6
25,23:6
25,26:6
25,27:6
26,5:6
26,7:14
26,9:14
26,10:14
26,11:14
26,12:14
26,13:14
26,14:6
26,15:6
26,16:6
26,17:6
26,18:14
26,20:14
26,21:14
26,25:6
27,5:6
27,7:14
27,9:14
27,10:14
27,11:14
27,12:14
27,13:14
27,14:6
27,15:6
27,16:6
27,17:6
27,18:14
27,20:14
27,21:14
27,25:6
27,28:6

<setup times backward>
2,5:6
2,14:6
2,15:6
2,16:6
2,25:6
3,5:6
3,14:6
3,15:6
3,16:6
3,17:6
3,25:6
4,5:6
4,14:6
4,15:6
4,16:6
4,17:6
4,25:6
6,5:6
6,14:6
6,15:6
6,16:6
6,17:6
6,25:6
7,1:14
7,2:14
7,3:14
7,4:14
7,5:20
7,6:14
7,8:14
7,14:20
7,15:20
7,16:20
7,17:20
7,19:14
7,22:14
7,23:14
7,24:14
7,25:20
7,26:14
7,27:14
8,5:6
8,17:6
8,25:6
9,1:14
9,2:14
9,3:14
9,4:14
9,5:20
9,6:14
9,8:14
9,17:20
9,19:14
9,22:14
9,23:14
9,24:14
9,25:20
9,26:14
9,27:14
10,1:14
10,2:14
10,3:14
10,4:14
10,5:20
10,6:14
10,8:14
10,17:20
10,19:14
10,22:14
10,23:14
10,24:14
10,25:20
10,26:14
10,27:14
11,1:14
11,2:14
11,3:14
11,4:14
11,5:20
11,6:14
11,8:14
11,14:20
11,16:20
11,17:20
11,19:14
11,22:14
11,23:14
11,24:14
11,25:20
11,26:14
11,27:14
12,1:14
12,2:14
12,3:14
12,4:14
12,5:20
12,6:14
12,8:14
12,15:20
12,17:20
12,19:14
12,22:14
12,23:14
12,24:14
12,25:20
12,26:14
12,27:14
13,1:14
13,2:14
13,3:14
13,4:14
13,5:20
13,6:14
13,8:14
13,15:20
13,17:20
13,19:14
13,22:14
13,23:14
13,24:14
13,25:20
13,26:14
13,27:14
18,1:14
18,2:14
18,3:14
18,4:14
18,5:20
18,6:14
18,8:14
18,14:20
18,15:20
18,16:20
18,17:20
18,19:14
18,22:14
18,23:14
18,24:14
18,25:20
18,26:14
18,27:14
19,5:6
19,14:6
19,15:6
19,16:6
19,17:6
19,25:6
20,1:14
20,2:14
20,3:14
20,4:14
20,5:20
20,6:14
20,8:14
20,14:20
20,15:20
20,16:20
20,17:20
20,19:14
20,22:14
20,23:14
20,24:14
20,25:20
20,26:14
20,27:14
21,1:14
21,2:14
21,3:14
21,4:14
21,5:20
21,6:14
21,8:14
21,14:20
21,15:20
21,16:20
21,17:20
21,19:14
21,22:14
21,23:14
21,24:14
21,25:20
21,26:14
21,27:14
22,5:6
22,14:6
22,15:6
22,16:6
22,17:6
22,25:6
23,5:6
23,14:6
23,15:6
23,16:6
23,17:6
23,25:6
24,5:6
24,14:6
24,15:6
24,16:6
24,17:6
26,5:6
26,14:6
26,15:6
26,16:6
26,17:6
26,25:6
27,5:6
27,14:6
27,15:6
27,16:6
27,17:6
27,25:6

<end>

<optimal SALBP-1 value>
3


<rand seed>
467321153

<Lower Bounds>
Lm1=3
Lms1=3
Lm2=0
Lm3=0
Lm4=3
Best=3

<Optimal Stations (Iterations: 10)>
4
